 &CONTROL
                 calculation = 'vc-relax' ,
                restart_mode = 'from_scratch' ,
                      outdir = './outdir' ,
                  pseudo_dir = './pseudos' ,
                      prefix = 'bivo4' ,
               etot_conv_thr = 1e-5 ,
               forc_conv_thr = 1e-4 ,
                       nstep = 100 ,
 /
 &SYSTEM
                       ibrav = 0,
                   celldm(1) = 9.81429267,
                         nat = 12,
                        ntyp = 3,
                     ecutwfc = 45 ,
                     ecutrho = 455 ,
                 occupations = 'smearing' ,
                     degauss = 0.005 ,
                    smearing = 'gaussian' ,
 /
 &ELECTRONS
                    conv_thr = 1e-8 ,
 /
 &IONS
 /
 &CELL
                 cell_dofree = 'ibrav' ,
 /
CELL_PARAMETERS alat 
     1.000000000    0.000000000    0.000000000 
    -0.006619506    0.980010378    0.000000000 
     0.496690247    0.490005189    1.126138442 
ATOMIC_SPECIES
   Bi   -1.00000  Bi.pbe-dn-rrkjus_psl.1.0.0.UPF 
    V   -1.00000  V.pbe-n-van.UPF 
    O   -1.00000  O.pbe-rrkjus.UPF 
ATOMIC_POSITIONS crystal 
   Bi      0.366500000    0.616500000    0.267000000    
   Bi      0.633500000    0.383500000    0.733000000    
    V      0.870000000    0.120000000    0.260000000    
    V      0.130000000    0.880000000    0.740000000    
    O      0.938300000    0.299500000    0.416400000    
    O      0.645300000    0.784100000    0.416400000    
    O      0.061700000    0.700500000    0.583600000    
    O      0.354700000    0.215900000    0.583600000    
    O      0.811300000    0.931700000    0.898600000    
    O      0.290100000    0.669700000    0.898600000    
    O      0.188700000    0.068300000    0.101400000    
    O      0.709900000    0.330300000    0.101400000    
K_POINTS automatic 
  2 2 2   0 0 0 

