 &control
    calculation = 'scf'
    tprnfor = .true.
    tstress = .true.
    pseudo_dir = '/home/uezono/pseudo/'
    disk_io = 'none'
 /
 &system
    ibrav = 0
    nat = 96
    ntyp = 3
    ecutwfc = 70.0
 /
 &electrons
    diagonalization = 'david'
    conv_thr = 1.0d-9
 /
K_POINTS automatic
 2 2 2  1 1 1
