!    ibrav = 0, nat = 96, ntyp = 3
CELL_PARAMETERS bohr
   19.6285853400000008    0.0000000000000000    0.0000000000000000
   -0.1299315384296420   19.2362173386586583    0.0000000000000000
    9.7493269007851797    9.6181086693293292   22.1045045134516407
ATOMIC_SPECIES
 Bi  208.98040   Bi.pbe-dn-rrkjus_psl.1.0.0.UPF
  V   50.94150   V.pbe-n-van.UPF
  O   15.99940   O.pbe-rrkjus.UPF
ATOMIC_POSITIONS crystal
 Bi   0.1832500000000000  0.3082500000000000  0.1335000000000000
 Bi   0.6832500000000000  0.3082500000000000  0.1335000000000000
 Bi   0.1832500000000000  0.8082500000000000  0.1335000000000000
 Bi   0.6832500000000000  0.8082500000000000  0.1335000000000000
 Bi   0.1832500000000000  0.3082500000000000  0.6335000000000000
 Bi   0.6832500000000000  0.3082500000000000  0.6335000000000000
 Bi   0.1832500000000000  0.8082500000000000  0.6335000000000000
 Bi   0.6832500000000000  0.8082500000000000  0.6335000000000000
 Bi   0.3167500000000000  0.1917500000000000  0.3665000000000000
 Bi   0.8167500000000000  0.1917500000000000  0.3665000000000000
 Bi   0.3167500000000000  0.6917500000000000  0.3665000000000000
 Bi   0.8167500000000000  0.6917500000000000  0.3665000000000000
 Bi   0.3167500000000000  0.1917500000000000  0.8665000000000000
 Bi   0.8167500000000000  0.1917500000000000  0.8665000000000000
 Bi   0.3167500000000000  0.6917500000000000  0.8665000000000000
 Bi   0.8167500000000000  0.6917500000000000  0.8665000000000000
  V   0.4350000000000000  0.0600000000000000  0.1300000000000000
  V   0.9350000000000001  0.0600000000000000  0.1300000000000000
  V   0.4350000000000000  0.5600000000000001  0.1300000000000000
  V   0.9350000000000001  0.5600000000000001  0.1300000000000000
  V   0.4350000000000000  0.0600000000000000  0.6300000000000000
  V   0.9350000000000001  0.0600000000000000  0.6300000000000000
  V   0.4350000000000000  0.5600000000000001  0.6300000000000000
  V   0.9350000000000001  0.5600000000000001  0.6300000000000000
  V   0.0650000000000000  0.4400000000000000  0.3700000000000000
  V   0.5649999999999999  0.4400000000000000  0.3700000000000000
  V   0.0650000000000000  0.9399999999999999  0.3700000000000000
  V   0.5649999999999999  0.9399999999999999  0.3700000000000000
  V   0.0650000000000000  0.4400000000000000  0.8700000000000000
  V   0.5649999999999999  0.4400000000000000  0.8700000000000000
  V   0.0650000000000000  0.9399999999999999  0.8700000000000000
  V   0.5649999999999999  0.9399999999999999  0.8700000000000000
  O   0.4691500000000000  0.1497500000000000  0.2082000000000000
  O   0.9691500000000000  0.1497500000000000  0.2082000000000000
  O   0.4691500000000000  0.6497500000000000  0.2082000000000000
  O   0.9691500000000000  0.6497500000000000  0.2082000000000000
  O   0.4691500000000000  0.1497500000000000  0.7081999999999999
  O   0.9691500000000000  0.1497500000000000  0.7081999999999999
  O   0.4691500000000000  0.6497500000000000  0.7081999999999999
  O   0.9691500000000000  0.6497500000000000  0.7081999999999999
  O   0.3226500000000000  0.3920500000000000  0.2082000000000000
  O   0.8226500000000000  0.3920500000000000  0.2082000000000000
  O   0.3226500000000000  0.8920500000000000  0.2082000000000000
  O   0.8226500000000000  0.8920500000000000  0.2082000000000000
  O   0.3226500000000000  0.3920500000000000  0.7081999999999999
  O   0.8226500000000000  0.3920500000000000  0.7081999999999999
  O   0.3226500000000000  0.8920500000000000  0.7081999999999999
  O   0.8226500000000000  0.8920500000000000  0.7081999999999999
  O   0.0308500000000000  0.3502500000000000  0.2918000000000000
  O   0.5308500000000000  0.3502500000000000  0.2918000000000000
  O   0.0308500000000000  0.8502500000000000  0.2918000000000000
  O   0.5308500000000000  0.8502500000000000  0.2918000000000000
  O   0.0308500000000000  0.3502500000000000  0.7918000000000001
  O   0.5308500000000000  0.3502500000000000  0.7918000000000001
  O   0.0308500000000000  0.8502500000000000  0.7918000000000001
  O   0.5308500000000000  0.8502500000000000  0.7918000000000001
  O   0.1773500000000000  0.1079500000000000  0.2918000000000000
  O   0.6773500000000000  0.1079500000000000  0.2918000000000000
  O   0.1773500000000000  0.6079500000000000  0.2918000000000000
  O   0.6773500000000000  0.6079500000000000  0.2918000000000000
  O   0.1773500000000000  0.1079500000000000  0.7918000000000001
  O   0.6773500000000000  0.1079500000000000  0.7918000000000001
  O   0.1773500000000000  0.6079500000000000  0.7918000000000001
  O   0.6773500000000000  0.6079500000000000  0.7918000000000001
  O   0.4056500000000000  0.4658500000000000  0.4493000000000000
  O   0.9056500000000001  0.4658500000000000  0.4493000000000000
  O   0.4056500000000000  0.9658500000000000  0.4493000000000000
  O   0.9056500000000001  0.9658500000000000  0.4493000000000000
  O   0.4056500000000000  0.4658500000000000  0.9493000000000000
  O   0.9056500000000001  0.4658500000000000  0.9493000000000000
  O   0.4056500000000000  0.9658500000000000  0.9493000000000000
  O   0.9056500000000001  0.9658500000000000  0.9493000000000000
  O   0.1450500000000000  0.3348500000000000  0.4493000000000000
  O   0.6450500000000000  0.3348500000000000  0.4493000000000000
  O   0.1450500000000000  0.8348500000000000  0.4493000000000000
  O   0.6450500000000000  0.8348500000000000  0.4493000000000000
  O   0.1450500000000000  0.3348500000000000  0.9493000000000000
  O   0.6450500000000000  0.3348500000000000  0.9493000000000000
  O   0.1450500000000000  0.8348500000000000  0.9493000000000000
  O   0.6450500000000000  0.8348500000000000  0.9493000000000000
  O   0.0943500000000000  0.0341500000000000  0.0507000000000000
  O   0.5943500000000000  0.0341500000000000  0.0507000000000000
  O   0.0943500000000000  0.5341500000000000  0.0507000000000000
  O   0.5943500000000000  0.5341500000000000  0.0507000000000000
  O   0.0943500000000000  0.0341500000000000  0.5507000000000000
  O   0.5943500000000000  0.0341500000000000  0.5507000000000000
  O   0.0943500000000000  0.5341500000000000  0.5507000000000000
  O   0.5943500000000000  0.5341500000000000  0.5507000000000000
  O   0.3549500000000000  0.1651500000000000  0.0507000000000000
  O   0.8549500000000000  0.1651500000000000  0.0507000000000000
  O   0.3549500000000000  0.6651500000000000  0.0507000000000000
  O   0.8549500000000000  0.6651500000000000  0.0507000000000000
  O   0.3549500000000000  0.1651500000000000  0.5507000000000000
  O   0.8549500000000000  0.1651500000000000  0.5507000000000000
  O   0.3549500000000000  0.6651500000000000  0.5507000000000000
  O   0.8549500000000000  0.6651500000000000  0.5507000000000000